     Program PWSCF v.7.2 starts on 18May2024 at  0:44:48

     Waiting for input...
     Reading input from standard input
Warning: card &CELL ignored
Warning: card / ignored

     Current dimensions of program PWSCF are:
     Max number of different atomic species (ntypx) = 10
     Max number of k-points (npk) =  40000
     Max angular momentum in pseudopotentials (lmaxx) =  4
     WARNING: atomic wfc #  3 for atom typeAl has zero norm
     WARNING: atomic wfc #  4 for atom typeAl has zero norm
     Found identity + (  0.5000  0.1000 -0.0000) symmetry
     This is a supercell, fractional translations are disabled

     K-points division:     npool     =       6
     R & G space division:  proc/nbgrp/npool/nimage =      60
     Subspace diagonalization in iterative solution of the eigenvalue problem:
     one sub-group per band group will be used

     Using Slab Decomposition

     bravais-lattice index     =            0
     lattice parameter (alat)  =      22.3965  a.u.
     unit-cell volume          =   12999.3366 (a.u.)^3
     number of atoms/cell      =          200
     number of atomic types    =            2
     number of electrons       =       960.00
     number of Kohn-Sham states=          481
     kinetic-energy cutoff     =      70.0000  Ry
     charge density cutoff     =     280.0000  Ry
     scf convergence threshold =      1.0E-09
     mixing beta               =       0.5000
     number of iterations used =            8  plain     mixing
     Exchange-correlation=  SLA  PW   PBX  PBC
                           (   1   4   3   4   0   0   0)

     celldm(1)=  22.396522  celldm(2)=   0.000000  celldm(3)=   0.000000
     celldm(4)=   0.000000  celldm(5)=   0.000000  celldm(6)=   0.000000

     crystal axes: (cart. coord. in units of alat)
               a(1) = (   1.005459  -0.000000  -0.002309 )
               a(2) = (  -0.000000   1.240128   0.000000 )
               a(3) = (  -0.229673   0.000000   0.928528 )

     reciprocal axes: (cart. coord. in units 2 pi/alat)
               b(1) = (  0.995136  0.000000  0.246149 )
               b(2) = (  0.000000  0.806368 -0.000000 )
               b(3) = (  0.002474 -0.000000  1.077585 )

     PseudoPot. # 1 for Al read from file:
     ./pseudo/Al.pbe-tm-gipaw-dc.UPF
     MD5 check sum: efdf9c81b1c08458edd46fe92d869955
     Pseudo is Norm-conserving, Zval =  3.0
     Generated by new atomic code, or converted to UPF format
     Using radial grid of 1519 points,  2 beta functions with:
                l(1) =   0
                l(2) =   1

     PseudoPot. # 2 for O  read from file:
     ./pseudo/O.pbe-tm-new-gipaw-dc.UPF
     MD5 check sum: cd70c9dcf1f7d755502eb127a1501eea
     Pseudo is Norm-conserving, Zval =  6.0
     Generated by new atomic code, or converted to UPF format
     Using radial grid of 1469 points,  1 beta functions with:
                l(1) =   0

     atomic species   valence    mass     pseudopotential
        Al             3.00    26.98000     Al( 1.00)
        O              6.00    16.00000     O ( 1.00)

     No symmetry found

   Cartesian axes

     site n.     atom                  positions (alat units)
         1           Al  tau(   1) = (   0.6250642   0.0000609   0.1452670  )
         2           Al  tau(   2) = (   0.2654405   0.0000611   0.3166089  )
         3           Al  tau(   3) = (   0.1223347   0.1240737   0.1464210  )
         4           Al  tau(   4) = (   0.7681700   0.1240738   0.3154549  )
         5           Al  tau(   5) = (   0.8912685   0.0000620   0.0927951  )
         6           Al  tau(   6) = (  -0.0007634   0.0000622   0.3690838  )
         7           Al  tau(   7) = (   0.3885390   0.1240749   0.0939491  )
         8           Al  tau(   8) = (   0.5019661   0.1240750   0.3679298  )
         9           O   tau(   9) = (   0.1489903   0.0000634   0.0498716  )
        10           O   tau(  10) = (   0.7415153   0.0000636   0.4120055  )
        11           O   tau(  11) = (   0.6517197   0.1240763   0.0487175  )
        12           O   tau(  12) = (   0.2387859   0.1240765   0.4131595  )
        13           O   tau(  13) = (   0.4680738   0.0000632   0.1182378  )
        14           O   tau(  14) = (   0.4224324   0.0000633   0.3436458  )
        15           O   tau(  15) = (   0.9708033   0.1240759   0.1170835  )
        16           O   tau(  16) = (  -0.0802971   0.1240761   0.3448001  )
        17           O   tau(  17) = (   0.7813231   0.0000636   0.1988965  )
        18           O   tau(  18) = (   0.1091729   0.0000643   0.2629789  )
        19           O   tau(  19) = (   0.2785937   0.1240764   0.2000505  )
        20           O   tau(  20) = (   0.6119023   0.1240771   0.2618249  )
        21           Al  tau(  21) = (   0.6250641   0.2480865   0.1452670  )
        22           Al  tau(  22) = (   0.2654405   0.2480867   0.3166089  )
        23           Al  tau(  23) = (   0.1223347   0.3720993   0.1464210  )
        24           Al  tau(  24) = (   0.7681699   0.3720994   0.3154549  )
        25           Al  tau(  25) = (   0.8912685   0.2480876   0.0927951  )
        26           Al  tau(  26) = (  -0.0007634   0.2480878   0.3690838  )
        27           Al  tau(  27) = (   0.3885390   0.3721005   0.0939491  )
        28           Al  tau(  28) = (   0.5019660   0.3721006   0.3679298  )
        29           O   tau(  29) = (   0.1489903   0.2480890   0.0498716  )
        30           O   tau(  30) = (   0.7415153   0.2480892   0.4120055  )
        31           O   tau(  31) = (   0.6517197   0.3721019   0.0487175  )
        32           O   tau(  32) = (   0.2387858   0.3721021   0.4131595  )
        33           O   tau(  33) = (   0.4680738   0.2480888   0.1182378  )
        34           O   tau(  34) = (   0.4224324   0.2480889   0.3436458  )
        35           O   tau(  35) = (   0.9708033   0.3721015   0.1170836  )
        36           O   tau(  36) = (  -0.0802971   0.3721017   0.3448000  )
        37           O   tau(  37) = (   0.7813231   0.2480892   0.1988965  )
        38           O   tau(  38) = (   0.1091729   0.2480899   0.2629789  )
        39           O   tau(  39) = (   0.2785936   0.3721020   0.2000505  )
        40           O   tau(  40) = (   0.6119023   0.3721027   0.2618249  )
        41           Al  tau(  41) = (   0.6250641   0.4961121   0.1452670  )
        42           Al  tau(  42) = (   0.2654405   0.4961123   0.3166089  )
        43           Al  tau(  43) = (   0.1223347   0.6201249   0.1464210  )
        44           Al  tau(  44) = (   0.7681699   0.6201251   0.3154549  )
        45           Al  tau(  45) = (   0.8912685   0.4961132   0.0927951  )
        46           Al  tau(  46) = (  -0.0007634   0.4961134   0.3690839  )
        47           Al  tau(  47) = (   0.3885390   0.6201261   0.0939491  )
        48           Al  tau(  48) = (   0.5019660   0.6201262   0.3679298  )
        49           O   tau(  49) = (   0.1489902   0.4961147   0.0498716  )
        50           O   tau(  50) = (   0.7415153   0.4961148   0.4120055  )
        51           O   tau(  51) = (   0.6517197   0.6201275   0.0487175  )
        52           O   tau(  52) = (   0.2387858   0.6201277   0.4131595  )
        53           O   tau(  53) = (   0.4680737   0.4961144   0.1182378  )
        54           O   tau(  54) = (   0.4224324   0.4961145   0.3436458  )
        55           O   tau(  55) = (   0.9708033   0.6201271   0.1170836  )
        56           O   tau(  56) = (  -0.0802971   0.6201273   0.3448001  )
        57           O   tau(  57) = (   0.7813231   0.4961148   0.1988965  )
        58           O   tau(  58) = (   0.1091729   0.4961156   0.2629789  )
        59           O   tau(  59) = (   0.2785936   0.6201277   0.2000506  )
        60           O   tau(  60) = (   0.6119023   0.6201284   0.2618249  )
[...]
       186           Al  tau( 186) = (  -0.1156104   0.9921644   0.8333496  )
       187           Al  tau( 187) = (   0.2736919   1.1161774   0.5582148  )
       188           Al  tau( 188) = (   0.3871191   1.1161772   0.8321956  )
       189           O   tau( 189) = (   0.0341490   0.9921660   0.5141380  )
       190           O   tau( 190) = (   0.6266742   0.9921658   0.8762719  )
       191           O   tau( 191) = (   0.5368784   1.1161788   0.5129839  )
       192           O   tau( 192) = (   0.1239448   1.1161787   0.8774259  )
       193           O   tau( 193) = (   0.3532267   0.9921657   0.5825045  )
       194           O   tau( 194) = (   0.3075855   0.9921655   0.8079125  )
       195           O   tau( 195) = (   0.8559562   1.1161785   0.5813502  )
       196           O   tau( 196) = (  -0.1951440   1.1161783   0.8090668  )
       197           O   tau( 197) = (   0.6664746   0.9921659   0.6631622  )
       198           O   tau( 198) = (  -0.0056755   0.9921667   0.7272445  )
       199           O   tau( 199) = (   0.1637451   1.1161787   0.6643162  )
       200           O   tau( 200) = (   0.4970539   1.1161795   0.7260905  )

     number of k points=     8
                       cart. coord. in units 2pi/alat
        k(    1) = (   0.0000000   0.0000000   0.0000000), wk =   0.2500000
        k(    2) = (  -0.0012371   0.0000000  -0.5387924), wk =   0.2500000
        k(    3) = (  -0.0000000  -0.4031842   0.0000000), wk =   0.2500000
        k(    4) = (  -0.0012371  -0.4031841  -0.5387924), wk =   0.2500000
        k(    5) = (  -0.4975679  -0.0000000  -0.1230743), wk =   0.2500000
        k(    6) = (  -0.4988050  -0.0000000  -0.6618668), wk =   0.2500000
        k(    7) = (  -0.4975679  -0.4031842  -0.1230743), wk =   0.2500000
        k(    8) = (  -0.4988050  -0.4031842  -0.6618668), wk =   0.2500000

     Initial potential from superposition of free atoms

     starting charge     919.9812, renormalised to     960.0000
     Starting wfcs are 1680 randomized atomic wfcs

     Self-consistent Calculation

     iteration #  1     ecut=    70.00 Ry     beta= 0.50
     Davidson diagonalization with overlap
     ethr =  1.00E-02,  avg # of iterations =  2.0

     total energy              =   -4192.45893285 Ry
     estimated scf accuracy    <      14.75825995 Ry

[...]

     total energy              =   -4196.66330382 Ry
     estimated scf accuracy    <          7.9E-09 Ry

     iteration # 12     ecut=    70.00 Ry     beta= 0.50
     Davidson diagonalization with overlap
     ethr =  8.22E-13,  avg # of iterations =  2.2

     End of self-consistent calculation

          k = 0.0000 0.0000 0.0000 (128539 PWs)   bands (ev):

   -12.3312 -12.0161 -12.0099 -12.0099 -11.9063 -11.8285 -11.7424 -11.7243
   -11.7243 -11.6347 -11.6347 -11.5553 -11.5553 -11.4816 -11.4816 -11.4506
   -11.3755 -11.2141 -11.2141 -11.1865 -11.1865 -11.1846 -11.1540 -11.1540
   -11.0220 -11.0220 -11.0152 -11.0152 -10.9689 -10.9689 -10.9286 -10.9286
   -10.9075 -10.9075 -10.8208 -10.7772 -10.7306 -10.7185 -10.6947 -10.6947
   -10.6937 -10.6937 -10.6583 -10.6404 -10.6404 -10.6011 -10.6011 -10.5901
   -10.5743 -10.5743 -10.5674 -10.5674 -10.5631 -10.5631 -10.5543 -10.5543
   -10.5240 -10.5240 -10.5169 -10.5169 -10.5063 -10.4675 -10.4675 -10.4669
[...]
     atom   10 type  2   force =     0.00000000    0.00000000    0.00000000
     atom   11 type  2   force =     0.00000000    0.00000000    0.00000000
     atom   12 type  2   force =     0.00000000    0.00000000    0.00000000
     atom   13 type  2   force =     0.00000000    0.00000000    0.00000000
     atom   14 type  2   force =     0.00000000    0.00000000    0.00000000
     atom   15 type  2   force =     0.00000000    0.00000000    0.00000000
     atom   16 type  2   force =     0.00000000    0.00000000    0.00000000
     atom   17 type  2   force =     0.00000000    0.00000000    0.00000000
     atom   18 type  2   force =     0.00000000    0.00000000    0.00000000
     atom   19 type  2   force =     0.00000000    0.00000000    0.00000000
     atom   20 type  2   force =     0.00000000    0.00000000    0.00000000
     atom   21 type  1   force =     0.00000000    0.00000000    0.00000000
     atom   22 type  1   force =     0.00000000    0.00000000    0.00000000
     atom   23 type  1   force =     0.00000000    0.00000000    0.00000000
     atom   24 type  1   force =     0.00000000    0.00000000    0.00000000
     atom   25 type  1   force =     0.00000000    0.00000000    0.00000000
     atom   26 type  1   force =     0.00000000    0.00000000    0.00000000
     atom   27 type  1   force =     0.00000000    0.00000000    0.00000000
     atom   28 type  1   force =     0.00000000    0.00000000    0.00000000
     atom   29 type  2   force =     0.00000000    0.00000000    0.00000000
     atom   30 type  2   force =     0.00000000    0.00000000    0.00000000
     atom   31 type  2   force =     0.00000000    0.00000000    0.00000000
     atom   32 type  2   force =     0.00000000    0.00000000    0.00000000
     atom   33 type  2   force =     0.00000000    0.00000000    0.00000000
     atom   34 type  2   force =     0.00000000    0.00000000    0.00000000
     atom   35 type  2   force =     0.00000000    0.00000000    0.00000000
     atom   36 type  2   force =     0.00000000    0.00000000    0.00000000
     atom   37 type  2   force =     0.00000000    0.00000000    0.00000000
     atom   38 type  2   force =     0.00000000    0.00000000    0.00000000
     atom   39 type  2   force =     0.00000000    0.00000000    0.00000000
     atom   40 type  2   force =     0.00000000    0.00000000    0.00000000
     atom   41 type  1   force =     0.00000000    0.00000000    0.00000000
     atom   42 type  1   force =     0.00000000    0.00000000    0.00000000
     atom   43 type  1   force =     0.00000000    0.00000000    0.00000000
     atom   44 type  1   force =     0.00000000    0.00000000    0.00000000
     atom   45 type  1   force =     0.00000000    0.00000000    0.00000000
     atom   46 type  1   force =     0.00000000    0.00000000    0.00000000
     atom   47 type  1   force =     0.00000000    0.00000000    0.00000000
     atom   48 type  1   force =     0.00000000    0.00000000    0.00000000
     atom   49 type  2   force =     0.00000000    0.00000000    0.00000000
     atom   50 type  2   force =     0.00000000    0.00000000    0.00000000
     atom   51 type  2   force =     0.00000000    0.00000000    0.00000000
     atom   52 type  2   force =     0.00000000    0.00000000    0.00000000
     atom   53 type  2   force =     0.00000000    0.00000000    0.00000000
     atom   54 type  2   force =     0.00000000    0.00000000    0.00000000
     atom   55 type  2   force =     0.00000000    0.00000000    0.00000000
     atom   56 type  2   force =     0.00000000    0.00000000    0.00000000
     atom   57 type  2   force =     0.00000000    0.00000000    0.00000000
     atom   58 type  2   force =     0.00000000    0.00000000    0.00000000
     atom   59 type  2   force =     0.00000000    0.00000000    0.00000000
     atom   60 type  2   force =     0.00000000    0.00000000    0.00000000
[...]
     atom  186 type  1   force =     0.00000000    0.00000000    0.00000000
     atom  187 type  1   force =     0.00000000    0.00000000    0.00000000
     atom  188 type  1   force =     0.00000000    0.00000000    0.00000000
     atom  189 type  2   force =     0.00000000    0.00000000    0.00000000
     atom  190 type  2   force =     0.00000000    0.00000000    0.00000000
     atom  191 type  2   force =     0.00000000    0.00000000    0.00000000
     atom  192 type  2   force =     0.00000000    0.00000000    0.00000000
     atom  193 type  2   force =     0.00000000    0.00000000    0.00000000
     atom  194 type  2   force =     0.00000000    0.00000000    0.00000000
     atom  195 type  2   force =     0.00000000    0.00000000    0.00000000
     atom  196 type  2   force =     0.00000000    0.00000000    0.00000000
     atom  197 type  2   force =     0.00000000    0.00000000    0.00000000
     atom  198 type  2   force =     0.00000000    0.00000000    0.00000000
     atom  199 type  2   force =     0.00000000    0.00000000    0.00000000
     atom  200 type  2   force =     0.00000000    0.00000000    0.00000000
     The Hubbard contrib.    to forces
     atom    1 type  1   force =     0.00000000    0.00000000    0.00000000
     atom    2 type  1   force =     0.00000000    0.00000000    0.00000000
     atom    3 type  1   force =     0.00000000    0.00000000    0.00000000
     atom    4 type  1   force =     0.00000000    0.00000000    0.00000000
     atom    5 type  1   force =     0.00000000    0.00000000    0.00000000
     atom    6 type  1   force =     0.00000000    0.00000000    0.00000000
     atom    7 type  1   force =     0.00000000    0.00000000    0.00000000
     atom    8 type  1   force =     0.00000000    0.00000000    0.00000000
     atom    9 type  2   force =     0.00000000    0.00000000    0.00000000
     atom   10 type  2   force =     0.00000000    0.00000000    0.00000000
     atom   11 type  2   force =     0.00000000    0.00000000    0.00000000
     atom   12 type  2   force =     0.00000000    0.00000000    0.00000000
     atom   13 type  2   force =     0.00000000    0.00000000    0.00000000
     atom   14 type  2   force =     0.00000000    0.00000000    0.00000000
     atom   15 type  2   force =     0.00000000    0.00000000    0.00000000
     atom   16 type  2   force =     0.00000000    0.00000000    0.00000000
     atom   17 type  2   force =     0.00000000    0.00000000    0.00000000
     atom   18 type  2   force =     0.00000000    0.00000000    0.00000000
     atom   19 type  2   force =     0.00000000    0.00000000    0.00000000
     atom   20 type  2   force =     0.00000000    0.00000000    0.00000000
     atom   21 type  1   force =     0.00000000    0.00000000    0.00000000
     atom   22 type  1   force =     0.00000000    0.00000000    0.00000000
     atom   23 type  1   force =     0.00000000    0.00000000    0.00000000
     atom   24 type  1   force =     0.00000000    0.00000000    0.00000000
     atom   25 type  1   force =     0.00000000    0.00000000    0.00000000
     atom   26 type  1   force =     0.00000000    0.00000000    0.00000000
     atom   27 type  1   force =     0.00000000    0.00000000    0.00000000
     atom   28 type  1   force =     0.00000000    0.00000000    0.00000000
     atom   29 type  2   force =     0.00000000    0.00000000    0.00000000
     atom   30 type  2   force =     0.00000000    0.00000000    0.00000000
     atom   31 type  2   force =     0.00000000    0.00000000    0.00000000
     atom   32 type  2   force =     0.00000000    0.00000000    0.00000000
     atom   33 type  2   force =     0.00000000    0.00000000    0.00000000
     atom   34 type  2   force =     0.00000000    0.00000000    0.00000000
     atom   35 type  2   force =     0.00000000    0.00000000    0.00000000
     atom   36 type  2   force =     0.00000000    0.00000000    0.00000000
     atom   37 type  2   force =     0.00000000    0.00000000    0.00000000
     atom   38 type  2   force =     0.00000000    0.00000000    0.00000000
     atom   39 type  2   force =     0.00000000    0.00000000    0.00000000
     atom   40 type  2   force =     0.00000000    0.00000000    0.00000000
     atom   41 type  1   force =     0.00000000    0.00000000    0.00000000
     atom   42 type  1   force =     0.00000000    0.00000000    0.00000000
     atom   43 type  1   force =     0.00000000    0.00000000    0.00000000
     atom   44 type  1   force =     0.00000000    0.00000000    0.00000000
     atom   45 type  1   force =     0.00000000    0.00000000    0.00000000
     atom   46 type  1   force =     0.00000000    0.00000000    0.00000000
     atom   47 type  1   force =     0.00000000    0.00000000    0.00000000
     atom   48 type  1   force =     0.00000000    0.00000000    0.00000000
     atom   49 type  2   force =     0.00000000    0.00000000    0.00000000
     atom   50 type  2   force =     0.00000000    0.00000000    0.00000000
     atom   51 type  2   force =     0.00000000    0.00000000    0.00000000
     atom   52 type  2   force =     0.00000000    0.00000000    0.00000000
     atom   53 type  2   force =     0.00000000    0.00000000    0.00000000
     atom   54 type  2   force =     0.00000000    0.00000000    0.00000000
     atom   55 type  2   force =     0.00000000    0.00000000    0.00000000
     atom   56 type  2   force =     0.00000000    0.00000000    0.00000000
     atom   57 type  2   force =     0.00000000    0.00000000    0.00000000
     atom   58 type  2   force =     0.00000000    0.00000000    0.00000000
     atom   59 type  2   force =     0.00000000    0.00000000    0.00000000
     atom   60 type  2   force =     0.00000000    0.00000000    0.00000000
[...]
     atom  186 type  1   force =     0.00000000    0.00000000    0.00000000
     atom  187 type  1   force =     0.00000000    0.00000000    0.00000000
     atom  188 type  1   force =     0.00000000    0.00000000    0.00000000
     atom  189 type  2   force =     0.00000000    0.00000000    0.00000000
     atom  190 type  2   force =     0.00000000    0.00000000    0.00000000
     atom  191 type  2   force =     0.00000000    0.00000000    0.00000000
     atom  192 type  2   force =     0.00000000    0.00000000    0.00000000
     atom  193 type  2   force =     0.00000000    0.00000000    0.00000000
     atom  194 type  2   force =     0.00000000    0.00000000    0.00000000
     atom  195 type  2   force =     0.00000000    0.00000000    0.00000000
     atom  196 type  2   force =     0.00000000    0.00000000    0.00000000
     atom  197 type  2   force =     0.00000000    0.00000000    0.00000000
     atom  198 type  2   force =     0.00000000    0.00000000    0.00000000
     atom  199 type  2   force =     0.00000000    0.00000000    0.00000000
     atom  200 type  2   force =     0.00000000    0.00000000    0.00000000
     The SCF correction term to forces
     atom    1 type  1   force =     0.00000020   -0.00000002   -0.00000047
     atom    2 type  1   force =    -0.00000020    0.00000000    0.00000048
     atom    3 type  1   force =     0.00000018    0.00000000   -0.00000045
     atom    4 type  1   force =    -0.00000019    0.00000000    0.00000046
     atom    5 type  1   force =    -0.00000017   -0.00000001   -0.00000053
     atom    6 type  1   force =     0.00000014   -0.00000001    0.00000053
     atom    7 type  1   force =    -0.00000013   -0.00000000   -0.00000052
     atom    8 type  1   force =     0.00000016    0.00000000    0.00000055
     atom    9 type  2   force =    -0.00000136    0.00000001   -0.00000131
     atom   10 type  2   force =     0.00000130   -0.00000004    0.00000136
     atom   11 type  2   force =    -0.00000125   -0.00000003   -0.00000139
     atom   12 type  2   force =     0.00000127    0.00000002    0.00000138
     atom   13 type  2   force =    -0.00000300   -0.00000003   -0.00000168
     atom   14 type  2   force =     0.00000306   -0.00000003    0.00000171
     atom   15 type  2   force =    -0.00000308    0.00000000   -0.00000165
     atom   16 type  2   force =     0.00000306    0.00000002    0.00000168
     atom   17 type  2   force =     0.00000004   -0.00000006   -0.00000192
     atom   18 type  2   force =    -0.00000005   -0.00000000    0.00000195
     atom   19 type  2   force =    -0.00000001    0.00000000   -0.00000184
     atom   20 type  2   force =     0.00000001   -0.00000000    0.00000191
     atom   21 type  1   force =     0.00000020   -0.00000000   -0.00000046
     atom   22 type  1   force =    -0.00000021    0.00000001    0.00000049
     atom   23 type  1   force =     0.00000018    0.00000001   -0.00000043
     atom   24 type  1   force =    -0.00000019    0.00000005    0.00000047
     atom   25 type  1   force =    -0.00000016    0.00000000   -0.00000053
     atom   26 type  1   force =     0.00000015    0.00000001    0.00000053
     atom   27 type  1   force =    -0.00000012    0.00000000   -0.00000047
     atom   28 type  1   force =     0.00000017    0.00000002    0.00000055
     atom   29 type  2   force =    -0.00000138   -0.00000003   -0.00000126
     atom   30 type  2   force =     0.00000131    0.00000008    0.00000136
     atom   31 type  2   force =    -0.00000124    0.00000003   -0.00000134
     atom   32 type  2   force =     0.00000126    0.00000004    0.00000135
     atom   33 type  2   force =    -0.00000300   -0.00000002   -0.00000164
     atom   34 type  2   force =     0.00000305    0.00000002    0.00000173
     atom   35 type  2   force =    -0.00000312    0.00000002   -0.00000159
     atom   36 type  2   force =     0.00000303    0.00000008    0.00000169
     atom   37 type  2   force =     0.00000005    0.00000004   -0.00000187
     atom   38 type  2   force =    -0.00000005    0.00000003    0.00000197
     atom   39 type  2   force =    -0.00000003    0.00000002   -0.00000177
     atom   40 type  2   force =     0.00000007    0.00000010    0.00000197
     atom   41 type  1   force =     0.00000021    0.00000004   -0.00000043
     atom   42 type  1   force =    -0.00000021    0.00000001    0.00000048
     atom   43 type  1   force =     0.00000017   -0.00000000   -0.00000042
     atom   44 type  1   force =    -0.00000020    0.00000002    0.00000048
     atom   45 type  1   force =    -0.00000018    0.00000002   -0.00000050
     atom   46 type  1   force =     0.00000014    0.00000002    0.00000053
     atom   47 type  1   force =    -0.00000011    0.00000001   -0.00000048
     atom   48 type  1   force =     0.00000018    0.00000001    0.00000054
     atom   49 type  2   force =    -0.00000140    0.00000000   -0.00000121
     atom   50 type  2   force =     0.00000130    0.00000010    0.00000126
     atom   51 type  2   force =    -0.00000124    0.00000005   -0.00000123
     atom   52 type  2   force =     0.00000127    0.00000001    0.00000135
     atom   53 type  2   force =    -0.00000295    0.00000006   -0.00000158
     atom   54 type  2   force =     0.00000310    0.00000005    0.00000174
     atom   55 type  2   force =    -0.00000316    0.00000000   -0.00000153
     atom   56 type  2   force =     0.00000295    0.00000003    0.00000169
     atom   57 type  2   force =     0.00000002    0.00000010   -0.00000176
     atom   58 type  2   force =    -0.00000008    0.00000002    0.00000199
     atom   59 type  2   force =    -0.00000000    0.00000001   -0.00000175
     atom   60 type  2   force =     0.00000013    0.00000006    0.00000196
[...]
     atom  186 type  1   force =     0.00000013   -0.00000000    0.00000052
     atom  187 type  1   force =    -0.00000015   -0.00000001   -0.00000053
     atom  188 type  1   force =     0.00000017   -0.00000000    0.00000054
     atom  189 type  2   force =    -0.00000132   -0.00000006   -0.00000142
     atom  190 type  2   force =     0.00000121    0.00000002    0.00000138
     atom  191 type  2   force =    -0.00000129   -0.00000005   -0.00000134
     atom  192 type  2   force =     0.00000138    0.00000001    0.00000135
     atom  193 type  2   force =    -0.00000300   -0.00000001   -0.00000171
     atom  194 type  2   force =     0.00000314    0.00000002    0.00000170
     atom  195 type  2   force =    -0.00000310   -0.00000002   -0.00000175
     atom  196 type  2   force =     0.00000296    0.00000001    0.00000166
     atom  197 type  2   force =    -0.00000006   -0.00000001   -0.00000195
     atom  198 type  2   force =    -0.00000000   -0.00000002    0.00000180
     atom  199 type  2   force =     0.00000004   -0.00000001   -0.00000195
     atom  200 type  2   force =     0.00000002   -0.00000002    0.00000189

     Total force =     0.005465     Total SCF correction =     0.000028

     Writing all to output data dir ./scratch/theta-al2o3.save/

     General routines

     Parallel routines

   This run was terminated on:   0:47:22  18May2024

   JOB DONE.