     Program PWSCF v.7.2 starts on 18May2024 at 12:34:53

     Waiting for input...
     Reading input from standard input
Warning: card &CELL ignored
Warning: card / ignored

     Current dimensions of program PWSCF are:
     Max number of different atomic species (ntypx) = 10
     Max number of k-points (npk) =  40000
     Max angular momentum in pseudopotentials (lmaxx) =  4
     WARNING: atomic wfc #  3 for atom typeAl has zero norm
     WARNING: atomic wfc #  4 for atom typeAl has zero norm

     K-points division:     npool     =       6
     R & G space division:  proc/nbgrp/npool/nimage =      60
     Subspace diagonalization in iterative solution of the eigenvalue problem:
     one sub-group per band group will be used

     Using Slab Decomposition

     Title:
     Al2O3_Rc100.0

     bravais-lattice index     =            0
     lattice parameter (alat)  =       9.0423  a.u.
     unit-cell volume          =    7088.9782 (a.u.)^3
     number of atoms/cell      =          120
     number of atomic types    =            2
     number of electrons       =       576.00
     number of Kohn-Sham states=          289
     kinetic-energy cutoff     =      70.0000  Ry
     charge density cutoff     =     280.0000  Ry
     scf convergence threshold =      1.0E-09
     mixing beta               =       0.5000
     number of iterations used =            8  plain     mixing
     Exchange-correlation=  SLA  PW   PBX  PBC
                           (   1   4   3   4   0   0   0)

     celldm(1)=   9.042291  celldm(2)=   0.000000  celldm(3)=   0.000000
     celldm(4)=   0.000000  celldm(5)=   0.000000  celldm(6)=   0.000000

     crystal axes: (cart. coord. in units of alat)
               a(1) = (   1.004977  -1.740663   0.000002 )
               a(2) = (   1.004973   1.740660   0.000000 )
               a(3) = (   0.000002  -0.000001   2.740619 )

     reciprocal axes: (cart. coord. in units 2 pi/alat)
               b(1) = (  0.497525 -0.287246 -0.000001 )
               b(2) = (  0.497525  0.287248 -0.000000 )
               b(3) = ( -0.000000  0.000000  0.364881 )

     PseudoPot. # 1 for Al read from file:
     ./pseudo/Al.pbe-tm-gipaw-dc.UPF
     MD5 check sum: efdf9c81b1c08458edd46fe92d869955
     Pseudo is Norm-conserving, Zval =  3.0
     Generated by new atomic code, or converted to UPF format
     Using radial grid of 1519 points,  2 beta functions with:
                l(1) =   0
                l(2) =   1

     PseudoPot. # 2 for O  read from file:
     ./pseudo/O.pbe-tm-new-gipaw-dc.UPF
     MD5 check sum: cd70c9dcf1f7d755502eb127a1501eea
     Pseudo is Norm-conserving, Zval =  6.0
     Generated by new atomic code, or converted to UPF format
     Using radial grid of 1469 points,  1 beta functions with:
                l(1) =   0

     atomic species   valence    mass     pseudopotential
        Al             3.00    26.98000     Al( 1.00)
        O              6.00    16.00000     O ( 1.00)

     No symmetry found

   Cartesian axes

     site n.     atom                  positions (alat units)
         1           Al  tau(   1) = (   0.5003149   0.2863421   2.6758994  )
         2           Al  tau(   2) = (  -0.0021747  -0.0038046   2.3243424  )
         3           Al  tau(   3) = (  -0.0021946   0.5764140   2.2191733  )
         4           Al  tau(   4) = (   0.5002794   0.2863138   1.8675558  )
         5           Al  tau(   5) = (  -0.0022144  -0.0037787   1.7623983  )
         6           Al  tau(   6) = (  -0.0021746   0.5764522   1.4108559  )
         7           Al  tau(   7) = (   0.5003132   0.2863392   1.3055891  )
         8           Al  tau(   8) = (  -0.0021802  -0.0038045   0.9540366  )
         9           Al  tau(   9) = (  -0.0021741   0.5764005   0.8488902  )
        10           Al  tau(  10) = (   0.5002758   0.2863151   0.4972554  )
        11           Al  tau(  11) = (  -0.0021963  -0.0037930   0.3920952  )
        12           Al  tau(  12) = (  -0.0021734   0.5764485   0.0405313  )
        13           O   tau(  13) = (   0.3463482  -0.0272221   2.5002088  )
        14           O   tau(  14) = (  -0.1560136   0.3097020   2.5002660  )
        15           O   tau(  15) = (   0.3056253   0.5765095   2.5002505  )
        16           O   tau(  16) = (   0.6948379  -0.0038719   2.0432327  )
        17           O   tau(  17) = (  -0.3507292   0.5998479   2.0433394  )
        18           O   tau(  18) = (   0.1517298   0.2629138   2.0432447  )
        19           O   tau(  19) = (   0.3464119   0.5529121   1.5866700  )
        20           O   tau(  20) = (  -0.1967676   0.2863955   1.5867085  )
        21           O   tau(  21) = (   0.3462710   0.0196985   1.5866533  )
        22           O   tau(  22) = (   0.6542554  -0.0272790   1.1298062  )
        23           O   tau(  23) = (   0.1517762   0.3097607   1.1297354  )
        24           O   tau(  24) = (  -0.3100346   0.5764587   1.1297406  )
        25           O   tau(  25) = (  -0.1562676   0.2628522   0.6732045  )
        26           O   tau(  26) = (   0.3463927   0.5998986   0.6731636  )
        27           O   tau(  27) = (   0.3057868  -0.0038405   0.6731129  )
        28           O   tau(  28) = (   0.6543357   0.0197754   0.2161551  )
        29           O   tau(  29) = (   0.1923819   0.2862660   0.2162388  )
        30           O   tau(  30) = (  -0.3507892   0.5529912   0.2161666  )
        31           Al  tau(  31) = (   1.5052810   0.2863490   2.6759111  )
        32           Al  tau(  32) = (   1.0027901  -0.0037935   2.3243381  )
        33           Al  tau(  33) = (   1.0027746   0.5764329   2.2191805  )
        34           Al  tau(  34) = (   1.5052438   0.2863124   1.8675527  )
        35           Al  tau(  35) = (   1.0027505  -0.0037792   1.7623982  )
        36           Al  tau(  36) = (   1.0027937   0.5764703   1.4108595  )
        37           Al  tau(  37) = (   1.5052779   0.2863509   1.3055819  )
        38           Al  tau(  38) = (   1.0027861  -0.0037961   0.9540481  )
        39           Al  tau(  39) = (   1.0027855   0.5764120   0.8488977  )
        40           Al  tau(  40) = (   1.5052505   0.2863195   0.4972664  )
        41           Al  tau(  41) = (   1.0027775  -0.0037890   0.3921070  )
        42           Al  tau(  42) = (   1.0027867   0.5764592   0.0405416  )
        43           O   tau(  43) = (   1.3513047  -0.0272074   2.5002182  )
        44           O   tau(  44) = (   0.8489564   0.3097161   2.5002584  )
        45           O   tau(  45) = (   1.3105909   0.5765205   2.5002651  )
        46           O   tau(  46) = (   1.6998095  -0.0038680   2.0432343  )
        47           O   tau(  47) = (   0.6542443   0.5998606   2.0433374  )
        48           O   tau(  48) = (   1.1566917   0.2629331   2.0432416  )
        49           O   tau(  49) = (   1.3513860   0.5529254   1.5866642  )
        50           O   tau(  50) = (   0.8082050   0.2864014   1.5867122  )
        51           O   tau(  51) = (   1.3512310   0.0197167   1.5866482  )
        52           O   tau(  52) = (   1.6592235  -0.0272658   1.1297968  )
        53           O   tau(  53) = (   1.1567339   0.3097766   1.1297421  )
        54           O   tau(  54) = (   0.6949290   0.5764670   1.1297518  )
        55           O   tau(  55) = (   0.8486898   0.2628550   0.6732204  )
        56           O   tau(  56) = (   1.3513584   0.5998976   0.6731672  )
        57           O   tau(  57) = (   1.3107527  -0.0038244   0.6731279  )
        58           O   tau(  58) = (   1.6592940   0.0197765   0.2161705  )
        59           O   tau(  59) = (   1.1973491   0.2862800   0.2162536  )
        60           O   tau(  60) = (   0.6541752   0.5529907   0.2161695  )
[...]
       106           O   tau( 106) = (   1.1973342   0.8664701   2.0432408  )
       107           O   tau( 107) = (   0.1517635   1.4701937   2.0433334  )
       108           O   tau( 108) = (   0.6542287   1.1332616   2.0432484  )
       109           O   tau( 109) = (   0.8489112   1.4232524   1.5866504  )
       110           O   tau( 110) = (   0.3057404   1.1567249   1.5867057  )
       111           O   tau( 111) = (   0.8487594   0.8900500   1.5866595  )
       112           O   tau( 112) = (   1.1567392   0.8430585   1.1297937  )
       113           O   tau( 113) = (   0.6542619   1.1801078   1.1297279  )
       114           O   tau( 114) = (   0.1924518   1.4467845   1.1297364  )
       115           O   tau( 115) = (   0.3462229   1.1331882   0.6732034  )
       116           O   tau( 116) = (   0.8488767   1.4702190   0.6731638  )
       117           O   tau( 117) = (   0.8082760   0.8664932   0.6731116  )
       118           O   tau( 118) = (   1.1568214   0.8901031   0.2161598  )
       119           O   tau( 119) = (   0.6948866   1.1566057   0.2162464  )
       120           O   tau( 120) = (   0.1517041   1.4233249   0.2161786  )

     number of k points=     8
                       cart. coord. in units 2pi/alat
        k(    1) = (   0.0000000   0.0000000   0.0000000), wk =   0.2500000
        k(    2) = (   0.0000002  -0.0000001  -0.1824405), wk =   0.2500000
        k(    3) = (  -0.2487626  -0.1436239   0.0000002), wk =   0.2500000
        k(    4) = (  -0.2487624  -0.1436239  -0.1824403), wk =   0.2500000
        k(    5) = (  -0.2487623   0.1436232   0.0000003), wk =   0.2500000
        k(    6) = (  -0.2487621   0.1436232  -0.1824403), wk =   0.2500000
        k(    7) = (  -0.4975249  -0.0000006   0.0000005), wk =   0.2500000
        k(    8) = (  -0.4975247  -0.0000007  -0.1824401), wk =   0.2500000

     Initial potential from superposition of free atoms

     starting charge     551.9887, renormalised to     576.0000
     Starting wfcs are 1008 randomized atomic wfcs

     Self-consistent Calculation

     iteration #  1     ecut=    70.00 Ry     beta= 0.50
     Davidson diagonalization with overlap
     ethr =  1.00E-02,  avg # of iterations =  2.0

     total energy              =   -2515.89713390 Ry
     estimated scf accuracy    <       7.49710982 Ry

[...]

     total energy              =   -2518.02468317 Ry
     estimated scf accuracy    <          4.3E-09 Ry

     iteration # 11     ecut=    70.00 Ry     beta= 0.50
     Davidson diagonalization with overlap
     ethr =  7.41E-13,  avg # of iterations =  2.0

     End of self-consistent calculation

          k = 0.0000 0.0000 0.0000 ( 69941 PWs)   bands (ev):

   -11.5444 -11.0888 -11.0884 -10.5364 -10.5363 -10.5362 -10.5361 -10.5360
   -10.5359 -10.4134 -10.4134 -10.4134 -10.1774 -10.1773 -10.1773 -10.1767
   -10.1767 -10.1766  -9.9925  -9.9923  -9.7784  -9.7784  -9.7784  -9.5586
    -9.5586  -9.5586  -9.3916  -9.3916  -9.3915  -9.2943  -9.2531  -9.2531
    -9.2530  -9.2527  -9.2526  -9.2526  -9.1820  -9.1820  -9.1820  -9.1817
    -9.1817  -9.1817  -9.1445  -9.1445  -9.1445  -9.0326  -9.0325  -8.9675
    -8.9673  -8.9671  -8.9671  -8.8828  -8.8828  -8.8827  -8.8826  -8.8826
    -8.8826  -8.8079  -8.8079  -8.8076  -8.8076  -8.7896  -8.7896  -8.7895
    -8.7892  -8.7891  -8.7890  -8.7143  -8.7143  -8.6681  -8.6681  -8.6681
[...]
     atom   10 type  1   force =     0.00000000    0.00000000    0.00000000
     atom   11 type  1   force =     0.00000000    0.00000000    0.00000000
     atom   12 type  1   force =     0.00000000    0.00000000    0.00000000
     atom   13 type  2   force =     0.00000000    0.00000000    0.00000000
     atom   14 type  2   force =     0.00000000    0.00000000    0.00000000
     atom   15 type  2   force =     0.00000000    0.00000000    0.00000000
     atom   16 type  2   force =     0.00000000    0.00000000    0.00000000
     atom   17 type  2   force =     0.00000000    0.00000000    0.00000000
     atom   18 type  2   force =     0.00000000    0.00000000    0.00000000
     atom   19 type  2   force =     0.00000000    0.00000000    0.00000000
     atom   20 type  2   force =     0.00000000    0.00000000    0.00000000
     atom   21 type  2   force =     0.00000000    0.00000000    0.00000000
     atom   22 type  2   force =     0.00000000    0.00000000    0.00000000
     atom   23 type  2   force =     0.00000000    0.00000000    0.00000000
     atom   24 type  2   force =     0.00000000    0.00000000    0.00000000
     atom   25 type  2   force =     0.00000000    0.00000000    0.00000000
     atom   26 type  2   force =     0.00000000    0.00000000    0.00000000
     atom   27 type  2   force =     0.00000000    0.00000000    0.00000000
     atom   28 type  2   force =     0.00000000    0.00000000    0.00000000
     atom   29 type  2   force =     0.00000000    0.00000000    0.00000000
     atom   30 type  2   force =     0.00000000    0.00000000    0.00000000
     atom   31 type  1   force =     0.00000000    0.00000000    0.00000000
     atom   32 type  1   force =     0.00000000    0.00000000    0.00000000
     atom   33 type  1   force =     0.00000000    0.00000000    0.00000000
     atom   34 type  1   force =     0.00000000    0.00000000    0.00000000
     atom   35 type  1   force =     0.00000000    0.00000000    0.00000000
     atom   36 type  1   force =     0.00000000    0.00000000    0.00000000
     atom   37 type  1   force =     0.00000000    0.00000000    0.00000000
     atom   38 type  1   force =     0.00000000    0.00000000    0.00000000
     atom   39 type  1   force =     0.00000000    0.00000000    0.00000000
     atom   40 type  1   force =     0.00000000    0.00000000    0.00000000
     atom   41 type  1   force =     0.00000000    0.00000000    0.00000000
     atom   42 type  1   force =     0.00000000    0.00000000    0.00000000
     atom   43 type  2   force =     0.00000000    0.00000000    0.00000000
     atom   44 type  2   force =     0.00000000    0.00000000    0.00000000
     atom   45 type  2   force =     0.00000000    0.00000000    0.00000000
     atom   46 type  2   force =     0.00000000    0.00000000    0.00000000
     atom   47 type  2   force =     0.00000000    0.00000000    0.00000000
     atom   48 type  2   force =     0.00000000    0.00000000    0.00000000
     atom   49 type  2   force =     0.00000000    0.00000000    0.00000000
     atom   50 type  2   force =     0.00000000    0.00000000    0.00000000
     atom   51 type  2   force =     0.00000000    0.00000000    0.00000000
     atom   52 type  2   force =     0.00000000    0.00000000    0.00000000
     atom   53 type  2   force =     0.00000000    0.00000000    0.00000000
     atom   54 type  2   force =     0.00000000    0.00000000    0.00000000
     atom   55 type  2   force =     0.00000000    0.00000000    0.00000000
     atom   56 type  2   force =     0.00000000    0.00000000    0.00000000
     atom   57 type  2   force =     0.00000000    0.00000000    0.00000000
     atom   58 type  2   force =     0.00000000    0.00000000    0.00000000
     atom   59 type  2   force =     0.00000000    0.00000000    0.00000000
     atom   60 type  2   force =     0.00000000    0.00000000    0.00000000
[...]
     atom  106 type  2   force =     0.00000000    0.00000000    0.00000000
     atom  107 type  2   force =     0.00000000    0.00000000    0.00000000
     atom  108 type  2   force =     0.00000000    0.00000000    0.00000000
     atom  109 type  2   force =     0.00000000    0.00000000    0.00000000
     atom  110 type  2   force =     0.00000000    0.00000000    0.00000000
     atom  111 type  2   force =     0.00000000    0.00000000    0.00000000
     atom  112 type  2   force =     0.00000000    0.00000000    0.00000000
     atom  113 type  2   force =     0.00000000    0.00000000    0.00000000
     atom  114 type  2   force =     0.00000000    0.00000000    0.00000000
     atom  115 type  2   force =     0.00000000    0.00000000    0.00000000
     atom  116 type  2   force =     0.00000000    0.00000000    0.00000000
     atom  117 type  2   force =     0.00000000    0.00000000    0.00000000
     atom  118 type  2   force =     0.00000000    0.00000000    0.00000000
     atom  119 type  2   force =     0.00000000    0.00000000    0.00000000
     atom  120 type  2   force =     0.00000000    0.00000000    0.00000000
     The Hubbard contrib.    to forces
     atom    1 type  1   force =     0.00000000    0.00000000    0.00000000
     atom    2 type  1   force =     0.00000000    0.00000000    0.00000000
     atom    3 type  1   force =     0.00000000    0.00000000    0.00000000
     atom    4 type  1   force =     0.00000000    0.00000000    0.00000000
     atom    5 type  1   force =     0.00000000    0.00000000    0.00000000
     atom    6 type  1   force =     0.00000000    0.00000000    0.00000000
     atom    7 type  1   force =     0.00000000    0.00000000    0.00000000
     atom    8 type  1   force =     0.00000000    0.00000000    0.00000000
     atom    9 type  1   force =     0.00000000    0.00000000    0.00000000
     atom   10 type  1   force =     0.00000000    0.00000000    0.00000000
     atom   11 type  1   force =     0.00000000    0.00000000    0.00000000
     atom   12 type  1   force =     0.00000000    0.00000000    0.00000000
     atom   13 type  2   force =     0.00000000    0.00000000    0.00000000
     atom   14 type  2   force =     0.00000000    0.00000000    0.00000000
     atom   15 type  2   force =     0.00000000    0.00000000    0.00000000
     atom   16 type  2   force =     0.00000000    0.00000000    0.00000000
     atom   17 type  2   force =     0.00000000    0.00000000    0.00000000
     atom   18 type  2   force =     0.00000000    0.00000000    0.00000000
     atom   19 type  2   force =     0.00000000    0.00000000    0.00000000
     atom   20 type  2   force =     0.00000000    0.00000000    0.00000000
     atom   21 type  2   force =     0.00000000    0.00000000    0.00000000
     atom   22 type  2   force =     0.00000000    0.00000000    0.00000000
     atom   23 type  2   force =     0.00000000    0.00000000    0.00000000
     atom   24 type  2   force =     0.00000000    0.00000000    0.00000000
     atom   25 type  2   force =     0.00000000    0.00000000    0.00000000
     atom   26 type  2   force =     0.00000000    0.00000000    0.00000000
     atom   27 type  2   force =     0.00000000    0.00000000    0.00000000
     atom   28 type  2   force =     0.00000000    0.00000000    0.00000000
     atom   29 type  2   force =     0.00000000    0.00000000    0.00000000
     atom   30 type  2   force =     0.00000000    0.00000000    0.00000000
     atom   31 type  1   force =     0.00000000    0.00000000    0.00000000
     atom   32 type  1   force =     0.00000000    0.00000000    0.00000000
     atom   33 type  1   force =     0.00000000    0.00000000    0.00000000
     atom   34 type  1   force =     0.00000000    0.00000000    0.00000000
     atom   35 type  1   force =     0.00000000    0.00000000    0.00000000
     atom   36 type  1   force =     0.00000000    0.00000000    0.00000000
     atom   37 type  1   force =     0.00000000    0.00000000    0.00000000
     atom   38 type  1   force =     0.00000000    0.00000000    0.00000000
     atom   39 type  1   force =     0.00000000    0.00000000    0.00000000
     atom   40 type  1   force =     0.00000000    0.00000000    0.00000000
     atom   41 type  1   force =     0.00000000    0.00000000    0.00000000
     atom   42 type  1   force =     0.00000000    0.00000000    0.00000000
     atom   43 type  2   force =     0.00000000    0.00000000    0.00000000
     atom   44 type  2   force =     0.00000000    0.00000000    0.00000000
     atom   45 type  2   force =     0.00000000    0.00000000    0.00000000
     atom   46 type  2   force =     0.00000000    0.00000000    0.00000000
     atom   47 type  2   force =     0.00000000    0.00000000    0.00000000
     atom   48 type  2   force =     0.00000000    0.00000000    0.00000000
     atom   49 type  2   force =     0.00000000    0.00000000    0.00000000
     atom   50 type  2   force =     0.00000000    0.00000000    0.00000000
     atom   51 type  2   force =     0.00000000    0.00000000    0.00000000
     atom   52 type  2   force =     0.00000000    0.00000000    0.00000000
     atom   53 type  2   force =     0.00000000    0.00000000    0.00000000
     atom   54 type  2   force =     0.00000000    0.00000000    0.00000000
     atom   55 type  2   force =     0.00000000    0.00000000    0.00000000
     atom   56 type  2   force =     0.00000000    0.00000000    0.00000000
     atom   57 type  2   force =     0.00000000    0.00000000    0.00000000
     atom   58 type  2   force =     0.00000000    0.00000000    0.00000000
     atom   59 type  2   force =     0.00000000    0.00000000    0.00000000
     atom   60 type  2   force =     0.00000000    0.00000000    0.00000000
[...]
     atom  106 type  2   force =     0.00000000    0.00000000    0.00000000
     atom  107 type  2   force =     0.00000000    0.00000000    0.00000000
     atom  108 type  2   force =     0.00000000    0.00000000    0.00000000
     atom  109 type  2   force =     0.00000000    0.00000000    0.00000000
     atom  110 type  2   force =     0.00000000    0.00000000    0.00000000
     atom  111 type  2   force =     0.00000000    0.00000000    0.00000000
     atom  112 type  2   force =     0.00000000    0.00000000    0.00000000
     atom  113 type  2   force =     0.00000000    0.00000000    0.00000000
     atom  114 type  2   force =     0.00000000    0.00000000    0.00000000
     atom  115 type  2   force =     0.00000000    0.00000000    0.00000000
     atom  116 type  2   force =     0.00000000    0.00000000    0.00000000
     atom  117 type  2   force =     0.00000000    0.00000000    0.00000000
     atom  118 type  2   force =     0.00000000    0.00000000    0.00000000
     atom  119 type  2   force =     0.00000000    0.00000000    0.00000000
     atom  120 type  2   force =     0.00000000    0.00000000    0.00000000
     The SCF correction term to forces
     atom    1 type  1   force =    -0.00000006    0.00000015   -0.00000024
     atom    2 type  1   force =    -0.00000024    0.00000008   -0.00000025
     atom    3 type  1   force =    -0.00000001    0.00000003    0.00000003
     atom    4 type  1   force =    -0.00000003    0.00000022    0.00000014
     atom    5 type  1   force =    -0.00000023   -0.00000003    0.00000028
     atom    6 type  1   force =     0.00000004    0.00000006    0.00000030
     atom    7 type  1   force =    -0.00000005    0.00000014    0.00000035
     atom    8 type  1   force =    -0.00000013   -0.00000013    0.00000008
     atom    9 type  1   force =     0.00000012    0.00000004    0.00000014
     atom   10 type  1   force =     0.00000003    0.00000024   -0.00000015
     atom   11 type  1   force =    -0.00000014   -0.00000003   -0.00000012
     atom   12 type  1   force =    -0.00000002   -0.00000003   -0.00000046
     atom   13 type  2   force =    -0.00000054    0.00000061   -0.00000090
     atom   14 type  2   force =    -0.00000039   -0.00000026   -0.00000081
     atom   15 type  2   force =     0.00000009    0.00000038   -0.00000098
     atom   16 type  2   force =     0.00000006    0.00000007    0.00000014
     atom   17 type  2   force =     0.00000033   -0.00000048    0.00000026
     atom   18 type  2   force =    -0.00000029    0.00000057    0.00000023
     atom   19 type  2   force =    -0.00000020    0.00000088    0.00000087
     atom   20 type  2   force =     0.00000011   -0.00000013    0.00000091
     atom   21 type  2   force =    -0.00000051   -0.00000022    0.00000080
     atom   22 type  2   force =     0.00000011    0.00000022    0.00000074
     atom   23 type  2   force =     0.00000009   -0.00000002    0.00000079
     atom   24 type  2   force =    -0.00000040    0.00000001    0.00000096
     atom   25 type  2   force =    -0.00000021    0.00000017   -0.00000038
     atom   26 type  2   force =     0.00000029    0.00000017   -0.00000025
     atom   27 type  2   force =     0.00000001    0.00000003   -0.00000021
     atom   28 type  2   force =     0.00000018    0.00000010   -0.00000058
     atom   29 type  2   force =    -0.00000069    0.00000033   -0.00000062
     atom   30 type  2   force =     0.00000045    0.00000000   -0.00000100
     atom   31 type  1   force =     0.00000004   -0.00000015   -0.00000037
     atom   32 type  1   force =     0.00000029    0.00000000   -0.00000024
     atom   33 type  1   force =    -0.00000008    0.00000000   -0.00000005
     atom   34 type  1   force =     0.00000008   -0.00000008    0.00000009
     atom   35 type  1   force =     0.00000016   -0.00000012    0.00000033
     atom   36 type  1   force =     0.00000006    0.00000020    0.00000015
     atom   37 type  1   force =     0.00000006   -0.00000003    0.00000048
     atom   38 type  1   force =     0.00000001    0.00000005    0.00000006
     atom   39 type  1   force =    -0.00000018    0.00000032    0.00000009
     atom   40 type  1   force =     0.00000007   -0.00000005   -0.00000026
     atom   41 type  1   force =     0.00000009    0.00000007   -0.00000011
     atom   42 type  1   force =    -0.00000004   -0.00000003   -0.00000037
     atom   43 type  2   force =     0.00000021    0.00000023   -0.00000091
     atom   44 type  2   force =     0.00000017   -0.00000010   -0.00000101
     atom   45 type  2   force =     0.00000055   -0.00000044   -0.00000090
     atom   46 type  2   force =    -0.00000055   -0.00000012    0.00000024
     atom   47 type  2   force =    -0.00000002    0.00000027    0.00000019
     atom   48 type  2   force =     0.00000045    0.00000010    0.00000029
     atom   49 type  2   force =    -0.00000003    0.00000024    0.00000069
     atom   50 type  2   force =     0.00000041    0.00000031    0.00000091
     atom   51 type  2   force =     0.00000023   -0.00000052    0.00000091
     atom   52 type  2   force =     0.00000020   -0.00000013    0.00000101
     atom   53 type  2   force =     0.00000037    0.00000012    0.00000086
     atom   54 type  2   force =    -0.00000033    0.00000083    0.00000037
     atom   55 type  2   force =    -0.00000034    0.00000098   -0.00000020
     atom   56 type  2   force =    -0.00000047   -0.00000009    0.00000002
     atom   57 type  2   force =     0.00000068   -0.00000011   -0.00000030
     atom   58 type  2   force =     0.00000015   -0.00000047   -0.00000096
     atom   59 type  2   force =    -0.00000006   -0.00000006   -0.00000091
     atom   60 type  2   force =     0.00000001    0.00000079   -0.00000024
[...]
     atom  106 type  2   force =    -0.00000054   -0.00000023   -0.00000002
     atom  107 type  2   force =     0.00000071   -0.00000041    0.00000015
     atom  108 type  2   force =    -0.00000021    0.00000026   -0.00000001
     atom  109 type  2   force =    -0.00000063    0.00000011    0.00000060
     atom  110 type  2   force =     0.00000060   -0.00000006    0.00000076
     atom  111 type  2   force =    -0.00000050    0.00000011    0.00000060
     atom  112 type  2   force =    -0.00000027    0.00000064    0.00000057
     atom  113 type  2   force =     0.00000032   -0.00000055    0.00000063
     atom  114 type  2   force =     0.00000019   -0.00000053    0.00000114
     atom  115 type  2   force =     0.00000058   -0.00000009   -0.00000006
     atom  116 type  2   force =    -0.00000042   -0.00000086   -0.00000015
     atom  117 type  2   force =     0.00000011    0.00000022    0.00000009
     atom  118 type  2   force =    -0.00000026   -0.00000037   -0.00000025
     atom  119 type  2   force =    -0.00000066    0.00000003   -0.00000020
     atom  120 type  2   force =     0.00000083    0.00000020   -0.00000088

     Total force =     0.004584     Total SCF correction =     0.000008

     Writing all to output data dir ./scratch/alpha-al2o3.save/

     General routines

     Parallel routines

   This run was terminated on:  12:35:51  18May2024

   JOB DONE.